CPXPARAM_TimeLimit                               7200
CPXPARAM_Read_DataCheck                          1
CPXPARAM_Output_IntSolFilePrefix                 "solucoes/t_sol_ini_ID007M015J015_ZintTrue_minla_fav/sol"
Tried aggregator 1 time.
MIP Presolve eliminated 1434 rows and 0 columns.
MIP Presolve modified 2625 coefficients.
Reduced MIP has 8676 rows, 1801 columns, and 26226 nonzeros.
Reduced MIP has 1575 binaries, 0 generals, 0 SOSs, and 0 indicators.
Presolve time = 0.00 sec. (8.44 ticks)
Found incumbent of value 8870.000000 after 0.02 sec. (22.31 ticks)
Probing time = 0.00 sec. (4.06 ticks)
Tried aggregator 1 time.
Reduced MIP has 8676 rows, 1801 columns, and 26226 nonzeros.
Reduced MIP has 1575 binaries, 0 generals, 0 SOSs, and 0 indicators.
Presolve time = 0.01 sec. (10.84 ticks)
Probing time = 0.00 sec. (4.06 ticks)
MIP emphasis: balance optimality and feasibility.
MIP search method: dynamic search.
Parallel mode: deterministic, using up to 8 threads.
Root relaxation solution time = 0.10 sec. (134.97 ticks)

        Nodes                                         Cuts/
   Node  Left     Objective  IInf  Best Integer    Best Bound    ItCnt     Gap

*     0+    0                         8870.0000     1181.0000            86.69%
New incumbent written to file 'solucoes/t_sol_ini_ID007M015J015_ZintTrue_minla_fav/sol-00001.sol'.
      0     0     1181.0000   192     8870.0000     1181.0000     1670   86.69%
*     0+    0                         1667.0000     1181.0000            29.15%
New incumbent written to file 'solucoes/t_sol_ini_ID007M015J015_ZintTrue_minla_fav/sol-00002.sol'.
      0     0     1181.0000    87     1667.0000      Cuts: 88     1788   29.15%
*     0+    0                         1649.0000     1181.0000            28.38%
New incumbent written to file 'solucoes/t_sol_ini_ID007M015J015_ZintTrue_minla_fav/sol-00003.sol'.
*     0+    0                         1643.0000     1181.0000            28.12%
New incumbent written to file 'solucoes/t_sol_ini_ID007M015J015_ZintTrue_minla_fav/sol-00004.sol'.
      0     0     1181.0000   103     1643.0000     Cuts: 275     1946   28.12%
*     0+    0                         1542.0000     1181.0000            23.41%
New incumbent written to file 'solucoes/t_sol_ini_ID007M015J015_ZintTrue_minla_fav/sol-00005.sol'.
      0     0     1181.0000    74     1542.0000     Cuts: 115     2026   23.41%
*     0+    0                         1527.0000     1181.0000            22.66%
New incumbent written to file 'solucoes/t_sol_ini_ID007M015J015_ZintTrue_minla_fav/sol-00006.sol'.
*     0+    0                         1516.0000     1181.0000            22.10%
New incumbent written to file 'solucoes/t_sol_ini_ID007M015J015_ZintTrue_minla_fav/sol-00007.sol'.
*     0+    0                         1504.0000     1181.0000            21.48%
New incumbent written to file 'solucoes/t_sol_ini_ID007M015J015_ZintTrue_minla_fav/sol-00008.sol'.
*     0+    0                         1484.0000     1181.0000            20.42%
New incumbent written to file 'solucoes/t_sol_ini_ID007M015J015_ZintTrue_minla_fav/sol-00009.sol'.
*     0+    0                         1459.0000     1181.0000            19.05%
New incumbent written to file 'solucoes/t_sol_ini_ID007M015J015_ZintTrue_minla_fav/sol-00010.sol'.
      0     0     1181.0000    87     1459.0000     Cuts: 307     2121   19.05%
*     0+    0                         1454.0000     1181.0000            18.78%
New incumbent written to file 'solucoes/t_sol_ini_ID007M015J015_ZintTrue_minla_fav/sol-00011.sol'.
*     0+    0                         1449.0000     1181.0000            18.50%
New incumbent written to file 'solucoes/t_sol_ini_ID007M015J015_ZintTrue_minla_fav/sol-00012.sol'.
*     0+    0                         1429.0000     1181.0000            17.35%
New incumbent written to file 'solucoes/t_sol_ini_ID007M015J015_ZintTrue_minla_fav/sol-00013.sol'.
      0     2     1181.0000    71     1429.0000     1181.0000     2121   17.35%
Elapsed time = 2.32 sec. (2157.77 ticks, tree = 0.01 MB, solutions = 13)
*    39+    4                         1425.0000     1181.0000            17.12%
New incumbent written to file 'solucoes/t_sol_ini_ID007M015J015_ZintTrue_minla_fav/sol-00014.sol'.
*    47+    4                         1416.0000     1181.0000            16.60%
New incumbent written to file 'solucoes/t_sol_ini_ID007M015J015_ZintTrue_minla_fav/sol-00015.sol'.
    103    94     1181.0000    80     1416.0000     1181.0000     5264   16.60%
    283   237     1181.0000    78     1416.0000     1181.0000    11200   16.60%
*   389+  317                         1412.0000     1181.0000            16.36%
New incumbent written to file 'solucoes/t_sol_ini_ID007M015J015_ZintTrue_minla_fav/sol-00016.sol'.
    445   387     1181.0000    85     1412.0000     1181.0000    15926   16.36%
*   561+  415                         1411.0000     1181.0000            16.30%
New incumbent written to file 'solucoes/t_sol_ini_ID007M015J015_ZintTrue_minla_fav/sol-00017.sol'.
    689   563     1344.0000    56     1411.0000     1181.0000    21222   16.30%
*   741+  640                         1406.0000     1181.0000            16.00%
New incumbent written to file 'solucoes/t_sol_ini_ID007M015J015_ZintTrue_minla_fav/sol-00018.sol'.
*   883+  696                         1404.0000     1181.0000            15.88%
New incumbent written to file 'solucoes/t_sol_ini_ID007M015J015_ZintTrue_minla_fav/sol-00019.sol'.
*   958+  696                         1401.0000     1181.0000            15.70%
New incumbent written to file 'solucoes/t_sol_ini_ID007M015J015_ZintTrue_minla_fav/sol-00020.sol'.
*  1033+  785                         1400.0000     1181.0000            15.64%
New incumbent written to file 'solucoes/t_sol_ini_ID007M015J015_ZintTrue_minla_fav/sol-00021.sol'.
   1088   882     1376.0000     3     1400.0000     1181.0000    27113   15.64%
*  1095+  881                         1397.0000     1181.0000            15.46%
New incumbent written to file 'solucoes/t_sol_ini_ID007M015J015_ZintTrue_minla_fav/sol-00022.sol'.
*  1119   936      integral     0     1376.0000     1181.0000    27910   14.17%
New incumbent written to file 'solucoes/t_sol_ini_ID007M015J015_ZintTrue_minla_fav/sol-00023.sol'.
   1471  1099     1287.0000    52     1376.0000     1181.0000    31396   14.17%
*  1680+ 1310                         1368.0000     1181.0000            13.67%
New incumbent written to file 'solucoes/t_sol_ini_ID007M015J015_ZintTrue_minla_fav/sol-00024.sol'.
   1832  1396     1365.0000    50     1368.0000     1181.0000    38701   13.67%
   1943  1508     1258.0000    72     1368.0000     1181.0000    42952   13.67%
   1999  1591     1247.0000    65     1368.0000     1181.0000    47240   13.67%
*  2155+ 1619                         1356.0000     1181.0000            12.91%
New incumbent written to file 'solucoes/t_sol_ini_ID007M015J015_ZintTrue_minla_fav/sol-00025.sol'.
*  2451  1869      integral     0     1354.0000     1181.0000    54539   12.78%
Elapsed time = 5.89 sec. (4614.05 ticks, tree = 3.09 MB, solutions = 31)
New incumbent written to file 'solucoes/t_sol_ini_ID007M015J015_ZintTrue_minla_fav/sol-00026.sol'.
*  2638+ 1649                         1352.0000     1181.0000            12.65%
New incumbent written to file 'solucoes/t_sol_ini_ID007M015J015_ZintTrue_minla_fav/sol-00027.sol'.
*  2643+ 1649                         1347.0000     1181.0000            12.32%
New incumbent written to file 'solucoes/t_sol_ini_ID007M015J015_ZintTrue_minla_fav/sol-00028.sol'.
*  2646+ 1624                         1341.0000     1181.0000            11.93%
New incumbent written to file 'solucoes/t_sol_ini_ID007M015J015_ZintTrue_minla_fav/sol-00029.sol'.
*  2662+ 1624                         1329.0000     1181.0000            11.14%
New incumbent written to file 'solucoes/t_sol_ini_ID007M015J015_ZintTrue_minla_fav/sol-00030.sol'.
*  2710+ 1649                         1326.0000     1181.0000            10.94%
New incumbent written to file 'solucoes/t_sol_ini_ID007M015J015_ZintTrue_minla_fav/sol-00031.sol'.
*  2738+ 1649                         1318.0000     1181.0000            10.39%
New incumbent written to file 'solucoes/t_sol_ini_ID007M015J015_ZintTrue_minla_fav/sol-00032.sol'.
*  2780+ 1649                         1314.0000     1181.0000            10.12%
New incumbent written to file 'solucoes/t_sol_ini_ID007M015J015_ZintTrue_minla_fav/sol-00033.sol'.
*  2808+ 1649                         1310.0000     1181.0000             9.85%
New incumbent written to file 'solucoes/t_sol_ini_ID007M015J015_ZintTrue_minla_fav/sol-00034.sol'.
*  2817+ 1635                         1306.0000     1181.0000             9.57%
New incumbent written to file 'solucoes/t_sol_ini_ID007M015J015_ZintTrue_minla_fav/sol-00035.sol'.
*  3394+ 2397                         1300.0000     1181.0000             9.15%
New incumbent written to file 'solucoes/t_sol_ini_ID007M015J015_ZintTrue_minla_fav/sol-00036.sol'.
   3444  2429     1181.0000    54     1300.0000     1181.0000    74010    9.15%
*  3631+ 2378                         1297.0000     1181.0000             8.94%
New incumbent written to file 'solucoes/t_sol_ini_ID007M015J015_ZintTrue_minla_fav/sol-00037.sol'.
*  3641+ 2349                         1293.0000     1181.0000             8.66%
New incumbent written to file 'solucoes/t_sol_ini_ID007M015J015_ZintTrue_minla_fav/sol-00038.sol'.
*  3650+ 2349                         1288.0000     1181.0000             8.31%
New incumbent written to file 'solucoes/t_sol_ini_ID007M015J015_ZintTrue_minla_fav/sol-00039.sol'.
*  3654+ 2349                         1287.0000     1181.0000             8.24%
New incumbent written to file 'solucoes/t_sol_ini_ID007M015J015_ZintTrue_minla_fav/sol-00040.sol'.
*  3655+ 2349                         1285.0000     1181.0000             8.09%
New incumbent written to file 'solucoes/t_sol_ini_ID007M015J015_ZintTrue_minla_fav/sol-00041.sol'.
*  3675+ 2349                         1284.0000     1181.0000             8.02%
New incumbent written to file 'solucoes/t_sol_ini_ID007M015J015_ZintTrue_minla_fav/sol-00042.sol'.
*  3688+ 2349                         1283.0000     1181.0000             7.95%
New incumbent written to file 'solucoes/t_sol_ini_ID007M015J015_ZintTrue_minla_fav/sol-00043.sol'.
*  3690+ 2349                         1282.0000     1181.0000             7.88%
New incumbent written to file 'solucoes/t_sol_ini_ID007M015J015_ZintTrue_minla_fav/sol-00044.sol'.
*  3697+ 2349                         1279.0000     1181.0000             7.66%
New incumbent written to file 'solucoes/t_sol_ini_ID007M015J015_ZintTrue_minla_fav/sol-00045.sol'.
*  3708+ 2349                         1277.0000     1181.0000             7.52%
New incumbent written to file 'solucoes/t_sol_ini_ID007M015J015_ZintTrue_minla_fav/sol-00046.sol'.
*  3992+ 1518                         1276.0000     1181.0000             7.45%
New incumbent written to file 'solucoes/t_sol_ini_ID007M015J015_ZintTrue_minla_fav/sol-00047.sol'.
   3992  1519     1181.0000    69     1276.0000     1181.0000    90638    7.45%
*  4004+ 1010                         1272.0000     1181.0000             7.15%
New incumbent written to file 'solucoes/t_sol_ini_ID007M015J015_ZintTrue_minla_fav/sol-00048.sol'.
*  4010+  671                         1271.0000     1181.0000             7.08%
New incumbent written to file 'solucoes/t_sol_ini_ID007M015J015_ZintTrue_minla_fav/sol-00049.sol'.
   4013   691     1181.0000    78     1271.0000     1181.0000    91336    7.08%
*  4018+  446                         1268.0000     1181.0000             6.86%
New incumbent written to file 'solucoes/t_sol_ini_ID007M015J015_ZintTrue_minla_fav/sol-00050.sol'.
*  4018+  298                         1267.0000     1181.0000             6.79%
New incumbent written to file 'solucoes/t_sol_ini_ID007M015J015_ZintTrue_minla_fav/sol-00051.sol'.
   4069    59        cutoff           1267.0000     1181.0000    93412    6.79%
*  4113+    6                         1260.0000     1181.0000             6.27%
New incumbent written to file 'solucoes/t_sol_ini_ID007M015J015_ZintTrue_minla_fav/sol-00052.sol'.
*  4126+    6                         1259.0000     1181.0000             6.20%
New incumbent written to file 'solucoes/t_sol_ini_ID007M015J015_ZintTrue_minla_fav/sol-00053.sol'.
*  4130+    6                         1258.0000     1181.0000             6.12%
New incumbent written to file 'solucoes/t_sol_ini_ID007M015J015_ZintTrue_minla_fav/sol-00054.sol'.
*  4501+  151                         1256.0000     1181.0000             5.97%
New incumbent written to file 'solucoes/t_sol_ini_ID007M015J015_ZintTrue_minla_fav/sol-00055.sol'.
*  4553+  151                         1254.0000     1181.0000             5.82%
New incumbent written to file 'solucoes/t_sol_ini_ID007M015J015_ZintTrue_minla_fav/sol-00056.sol'.
*  4627+  150                         1253.0000     1181.0000             5.75%
New incumbent written to file 'solucoes/t_sol_ini_ID007M015J015_ZintTrue_minla_fav/sol-00057.sol'.
*  4684+  149                         1250.0000     1181.0000             5.52%
New incumbent written to file 'solucoes/t_sol_ini_ID007M015J015_ZintTrue_minla_fav/sol-00058.sol'.
*  4687+  149                         1244.0000     1181.0000             5.06%
New incumbent written to file 'solucoes/t_sol_ini_ID007M015J015_ZintTrue_minla_fav/sol-00059.sol'.
   4689   302     1248.0000    39     1244.0000     1181.0000   109045    5.06%
*  4777+  488                         1243.0000     1181.0000             4.99%
New incumbent written to file 'solucoes/t_sol_ini_ID007M015J015_ZintTrue_minla_fav/sol-00060.sol'.
   4939   541     1181.0000    66     1243.0000     1181.0000   127262    4.99%
*  5584+  651                         1240.0000     1181.0000             4.76%
New incumbent written to file 'solucoes/t_sol_ini_ID007M015J015_ZintTrue_minla_fav/sol-00061.sol'.
   5732   909     1232.0000    46     1240.0000     1181.0000   154549    4.76%
*  5918+  938                         1239.0000     1181.0000             4.68%
New incumbent written to file 'solucoes/t_sol_ini_ID007M015J015_ZintTrue_minla_fav/sol-00062.sol'.
   6357   968     1181.0000    83     1239.0000     1181.0000   168139    4.68%
*  6412+ 1038                         1235.0000     1181.0000             4.37%
New incumbent written to file 'solucoes/t_sol_ini_ID007M015J015_ZintTrue_minla_fav/sol-00063.sol'.
*  6550+ 1038                         1234.0000     1181.0000             4.29%
New incumbent written to file 'solucoes/t_sol_ini_ID007M015J015_ZintTrue_minla_fav/sol-00064.sol'.
*  6585+ 1038                         1233.0000     1181.0000             4.22%
New incumbent written to file 'solucoes/t_sol_ini_ID007M015J015_ZintTrue_minla_fav/sol-00065.sol'.
*  6672+ 1038                         1231.0000     1181.0000             4.06%
New incumbent written to file 'solucoes/t_sol_ini_ID007M015J015_ZintTrue_minla_fav/sol-00066.sol'.
*  6678+ 1038                         1226.0000     1181.0000             3.67%
New incumbent written to file 'solucoes/t_sol_ini_ID007M015J015_ZintTrue_minla_fav/sol-00067.sol'.
   6771  1112     1220.0000    13     1226.0000     1181.0000   200998    3.67%
*  6803+ 1113                         1222.0000     1181.0000             3.36%
New incumbent written to file 'solucoes/t_sol_ini_ID007M015J015_ZintTrue_minla_fav/sol-00068.sol'.
*  7227+ 1068                         1220.0000     1181.0000             3.20%
New incumbent written to file 'solucoes/t_sol_ini_ID007M015J015_ZintTrue_minla_fav/sol-00069.sol'.
*  7305+ 1090                         1220.0000     1181.0000             3.20%
New incumbent written to file 'solucoes/t_sol_ini_ID007M015J015_ZintTrue_minla_fav/sol-00070.sol'.
   7589  1241        cutoff           1220.0000     1181.0000   236849    3.20%
Elapsed time = 23.17 sec. (17083.95 ticks, tree = 1.53 MB, solutions = 147)
   8535  1287     1181.0000    59     1220.0000     1181.0000   263340    3.20%
   8934  1402     1181.0000    66     1220.0000     1181.0000   306352    3.20%
   9791  1499    infeasible           1220.0000     1181.0000   337204    3.20%
  10239  1641     1181.0000    83     1220.0000     1181.0000   365781    3.20%
* 10431+ 1648                         1219.0000     1181.0000             3.12%
New incumbent written to file 'solucoes/t_sol_ini_ID007M015J015_ZintTrue_minla_fav/sol-00071.sol'.
  10899  1977     1181.0000    72     1219.0000     1181.0000   401821    3.12%
  11632  1985     1181.0000    74     1219.0000     1181.0000   423156    3.12%
* 11999+ 2073                         1218.0000     1181.0000             3.04%
New incumbent written to file 'solucoes/t_sol_ini_ID007M015J015_ZintTrue_minla_fav/sol-00072.sol'.
  12135  2231        cutoff           1218.0000     1181.0000   469556    3.04%
  13144  2246    infeasible           1218.0000     1181.0000   491502    3.04%
  13563  2449     1181.0000    54     1218.0000     1181.0000   528760    3.04%
  14270  2473     1181.0000    66     1218.0000     1181.0000   556263    3.04%
Elapsed time = 38.35 sec. (26654.79 ticks, tree = 3.38 MB, solutions = 149)
  14767  2675     1181.0000    70     1218.0000     1181.0000   579642    3.04%
  15484  2859    infeasible           1218.0000     1181.0000   621280    3.04%
  16122  3000     1201.0000    37     1218.0000     1181.0000   637837    3.04%
  16874  2999     1181.0000    65     1218.0000     1181.0000   662442    3.04%
  17589  3249        cutoff           1218.0000     1181.0000   701213    3.04%
* 17623+ 3274                         1217.0000     1181.0000             2.96%
New incumbent written to file 'solucoes/t_sol_ini_ID007M015J015_ZintTrue_minla_fav/sol-00073.sol'.
* 17625+ 3274                         1216.0000     1181.0000             2.88%
New incumbent written to file 'solucoes/t_sol_ini_ID007M015J015_ZintTrue_minla_fav/sol-00074.sol'.
  17872  3076     1181.0000    72     1216.0000     1181.0000   731956    2.88%
* 18100+ 3089                         1215.0000     1181.0000             2.80%
New incumbent written to file 'solucoes/t_sol_ini_ID007M015J015_ZintTrue_minla_fav/sol-00075.sol'.
  19044  3189     1181.0000    69     1215.0000     1181.0000   746539    2.80%
  19225  3386     1202.0000    76     1215.0000     1181.0000   790664    2.80%
* 19286+ 3367                         1214.0000     1181.0000             2.72%
New incumbent written to file 'solucoes/t_sol_ini_ID007M015J015_ZintTrue_minla_fav/sol-00076.sol'.
* 19388+ 3354                         1212.0000     1181.0000             2.56%
New incumbent written to file 'solucoes/t_sol_ini_ID007M015J015_ZintTrue_minla_fav/sol-00077.sol'.
* 19407+ 3351                         1211.0000     1181.0000             2.48%
New incumbent written to file 'solucoes/t_sol_ini_ID007M015J015_ZintTrue_minla_fav/sol-00078.sol'.
* 19415+ 3354                         1204.0000     1181.0000             1.91%
New incumbent written to file 'solucoes/t_sol_ini_ID007M015J015_ZintTrue_minla_fav/sol-00079.sol'.
  19447  3079     1181.0000    87     1204.0000     1181.0000   820989    1.91%
  20469  3133     1181.0000    74     1204.0000     1181.0000   829743    1.91%
Elapsed time = 53.83 sec. (36241.24 ticks, tree = 4.59 MB, solutions = 169)
  20893  3412        cutoff           1204.0000     1181.0000   872531    1.91%
* 20993+ 3198                         1203.0000     1181.0000             1.83%
New incumbent written to file 'solucoes/t_sol_ini_ID007M015J015_ZintTrue_minla_fav/sol-00080.sol'.
* 20999+ 3198                         1202.0000     1181.0000             1.75%
New incumbent written to file 'solucoes/t_sol_ini_ID007M015J015_ZintTrue_minla_fav/sol-00081.sol'.
* 21011+ 3198                         1200.0000     1181.0000             1.58%
New incumbent written to file 'solucoes/t_sol_ini_ID007M015J015_ZintTrue_minla_fav/sol-00082.sol'.
* 21021+ 3198                         1196.0000     1181.0000             1.25%
New incumbent written to file 'solucoes/t_sol_ini_ID007M015J015_ZintTrue_minla_fav/sol-00083.sol'.
  21130  2906    infeasible           1196.0000     1181.0000   921625    1.25%
* 21698+ 2841                         1195.0000     1181.0000             1.17%
New incumbent written to file 'solucoes/t_sol_ini_ID007M015J015_ZintTrue_minla_fav/sol-00084.sol'.
* 21718+ 2841                         1190.0000     1181.0000             0.76%
New incumbent written to file 'solucoes/t_sol_ini_ID007M015J015_ZintTrue_minla_fav/sol-00085.sol'.
  21792  2853     1181.0000    69     1190.0000     1181.0000   941405    0.76%
* 22418+ 2611                         1188.0000     1181.0000             0.59%
New incumbent written to file 'solucoes/t_sol_ini_ID007M015J015_ZintTrue_minla_fav/sol-00086.sol'.
* 22528+ 2844                         1188.0000     1181.0000             0.59%
New incumbent written to file 'solucoes/t_sol_ini_ID007M015J015_ZintTrue_minla_fav/sol-00087.sol'.
  22942  2672        cutoff           1188.0000     1181.0000   976369    0.59%
  23343  2669     1181.0000    73     1188.0000     1181.0000  1009943    0.59%
  23685  2193        cutoff           1188.0000     1181.0000  1076612    0.59%
* 23840+ 2085                         1185.0000     1181.0000             0.34%
New incumbent written to file 'solucoes/t_sol_ini_ID007M015J015_ZintTrue_minla_fav/sol-00088.sol'.
* 24107+ 1931                         1182.0000     1181.0000             0.08%
New incumbent written to file 'solucoes/t_sol_ini_ID007M015J015_ZintTrue_minla_fav/sol-00089.sol'.
  24669  1705     1181.0000    77     1182.0000     1181.0000  1119164    0.08%
* 24715+ 1710                         1181.0000     1181.0000             0.00%
New incumbent written to file 'solucoes/t_sol_ini_ID007M015J015_ZintTrue_minla_fav/sol-00090.sol'.

Implied bound cuts applied:  4
Flow cuts applied:  24
Mixed integer rounding cuts applied:  90
Gomory fractional cuts applied:  20

Root node processing (before b&c):
  Real time             =    2.30 sec. (2143.67 ticks)
Parallel b&c, 8 threads:
  Real time             =   63.04 sec. (41679.54 ticks)
  Sync time (average)   =   11.11 sec.
  Wait time (average)   =    0.30 sec.
                          ------------
Total (root+branch&cut) =   65.34 sec. (43823.21 ticks)
